c book.min
c
p min 7 192
c
n 1 100
n 6 50
n 7 -150
c
a 1 2 0 19 13
a 1 2 0 19 25
a 1 2 0 19 38
a 1 2 0 19 50
a 1 2 0 19 63
a 1 2 0 19 75
a 1 2 0 19 88
a 1 2 0 19 100
a 2 1 0 19 13
a 2 1 0 19 25
a 2 1 0 19 38
a 2 1 0 19 50
a 2 1 0 19 63
a 2 1 0 19 75
a 2 1 0 19 88
a 2 1 0 19 100
c
a 1 3 0 19 13
a 1 3 0 19 25
a 1 3 0 19 38
a 1 3 0 19 50
a 1 3 0 19 63
a 1 3 0 19 75
a 1 3 0 19 88
a 1 3 0 19 100
a 3 1 0 19 13
a 3 1 0 19 25
a 3 1 0 19 38
a 3 1 0 19 50
a 3 1 0 19 63
a 3 1 0 19 75
a 3 1 0 19 88
a 3 1 0 19 100
c
a 2 3 0 19 13
a 2 3 0 19 25
a 2 3 0 19 38
a 2 3 0 19 50
a 2 3 0 19 63
a 2 3 0 19 75
a 2 3 0 19 88
a 2 3 0 19 100
a 3 2 0 19 13
a 3 2 0 19 25
a 3 2 0 19 38
a 3 2 0 19 50
a 3 2 0 19 63
a 3 2 0 19 75
a 3 2 0 19 88
a 3 2 0 19 100
c
a 2 4 0 19 13
a 2 4 0 19 25
a 2 4 0 19 38
a 2 4 0 19 50
a 2 4 0 19 63
a 2 4 0 19 75
a 2 4 0 19 88
a 2 4 0 19 100
a 4 2 0 19 13
a 4 2 0 19 25
a 4 2 0 19 38
a 4 2 0 19 50
a 4 2 0 19 63
a 4 2 0 19 75
a 4 2 0 19 88
a 4 2 0 19 100
c
a 2 7 0 19 13
a 2 7 0 19 25
a 2 7 0 19 38
a 2 7 0 19 50
a 2 7 0 19 63
a 2 7 0 19 75
a 2 7 0 19 88
a 2 7 0 19 100
a 7 2 0 19 13
a 7 2 0 19 25
a 7 2 0 19 38
a 7 2 0 19 50
a 7 2 0 19 63
a 7 2 0 19 75
a 7 2 0 19 88
a 7 2 0 19 100
c
a 3 5 0 19 13
a 3 5 0 19 25
a 3 5 0 19 38
a 3 5 0 19 50
a 3 5 0 19 63
a 3 5 0 19 75
a 3 5 0 19 88
a 3 5 0 19 100
a 5 3 0 19 13
a 5 3 0 19 25
a 5 3 0 19 38
a 5 3 0 19 50
a 5 3 0 19 63
a 5 3 0 19 75
a 5 3 0 19 88
a 5 3 0 19 100
c
a 3 7 0 19 13
a 3 7 0 19 25
a 3 7 0 19 38
a 3 7 0 19 50
a 3 7 0 19 63
a 3 7 0 19 75
a 3 7 0 19 88
a 3 7 0 19 100
a 7 3 0 19 13
a 7 3 0 19 25
a 7 3 0 19 38
a 7 3 0 19 50
a 7 3 0 19 63
a 7 3 0 19 75
a 7 3 0 19 88
a 7 3 0 19 100
c
a 4 5 0 19 13
a 4 5 0 19 25
a 4 5 0 19 38
a 4 5 0 19 50
a 4 5 0 19 63
a 4 5 0 19 75
a 4 5 0 19 88
a 4 5 0 19 100
a 5 4 0 19 13
a 5 4 0 19 25
a 5 4 0 19 38
a 5 4 0 19 50
a 5 4 0 19 63
a 5 4 0 19 75
a 5 4 0 19 88
a 5 4 0 19 100
c
a 4 6 0 19 13
a 4 6 0 19 25
a 4 6 0 19 38
a 4 6 0 19 50
a 4 6 0 19 63
a 4 6 0 19 75
a 4 6 0 19 88
a 4 6 0 19 100
a 6 4 0 19 13
a 6 4 0 19 25
a 6 4 0 19 38
a 6 4 0 19 50
a 6 4 0 19 63
a 6 4 0 19 75
a 6 4 0 19 88
a 6 4 0 19 100
c
a 4 7 0 19 13
a 4 7 0 19 25
a 4 7 0 19 38
a 4 7 0 19 50
a 4 7 0 19 63
a 4 7 0 19 75
a 4 7 0 19 88
a 4 7 0 19 100
a 7 4 0 19 13
a 7 4 0 19 25
a 7 4 0 19 38
a 7 4 0 19 50
a 7 4 0 19 63
a 7 4 0 19 75
a 7 4 0 19 88
a 7 4 0 19 100
c
a 5 6 0 19 13
a 5 6 0 19 25
a 5 6 0 19 38
a 5 6 0 19 50
a 5 6 0 19 63
a 5 6 0 19 75
a 5 6 0 19 88
a 5 6 0 19 100
a 6 5 0 19 13
a 6 5 0 19 25
a 6 5 0 19 38
a 6 5 0 19 50
a 6 5 0 19 63
a 6 5 0 19 75
a 6 5 0 19 88
a 6 5 0 19 100
c
a 5 7 0 19 13
a 5 7 0 19 25
a 5 7 0 19 38
a 5 7 0 19 50
a 5 7 0 19 63
a 5 7 0 19 75
a 5 7 0 19 88
a 5 7 0 19 100
a 7 5 0 19 13
a 7 5 0 19 25
a 7 5 0 19 38
a 7 5 0 19 50
a 7 5 0 19 63
a 7 5 0 19 75
a 7 5 0 19 88
a 7 5 0 19 100
c
c eof
